!!! Generated by AiiDA !!!
&FORCE_EVAL
   &DFT
      BASIS_SET_FILE_NAME BASIS_MOLOPT
      &MGRID
         CUTOFF 400
      &END MGRID
      POTENTIAL_FILE_NAME GTH_POTENTIALS
      &QS
         EPS_DEFAULT 1e-13
         EXTRAPOLATION ASPC
         EXTRAPOLATION_ORDER 2
      &END QS
      &SCF
         ADDED_MOS 500
         CHOLESKY INVERSE
         &DIAGONALIZATION
            ALGORITHM STANDARD
         &END DIAGONALIZATION
         EPS_SCF 3e-07
         MAX_SCF 500
         &MIXING
            ALPHA 0.3
            BETA 1.5
            METHOD BROYDEN_MIXING
            NBROYDEN 14
         &END MIXING
         &PRINT
            &RESTART
               ADD_LAST NUMERIC
               &EACH
                  QS_SCF 50
               &END EACH
            &END RESTART
         &END PRINT
         SCF_GUESS RESTART
         &SMEAR ON
            ELECTRONIC_TEMPERATURE 300
            METHOD FERMI_DIRAC
         &END SMEAR
      &END SCF
      &XC
         &VDW_POTENTIAL
            DISPERSION_FUNCTIONAL PAIR_POTENTIAL
            &PAIR_POTENTIAL
               CALCULATE_C9_TERM .TRUE.
               PARAMETER_FILE_NAME dftd3.dat
               REFERENCE_C9_TERM .TRUE.
               REFERENCE_FUNCTIONAL PBE
               R_CUTOFF 12
               TYPE DFTD3
            &END PAIR_POTENTIAL
         &END VDW_POTENTIAL
         &XC_FUNCTIONAL PBE
         &END XC_FUNCTIONAL
      &END XC
   &END DFT
   METHOD Quickstep
   &SUBSYS
      &CELL
         A 10.0            0.0             0.0            
         B 0.0             10.0            0.0            
         C 0.0             0.0             10.0           
      &END CELL
      &KIND H
         BASIS_SET DZVP-MOLOPT-SR-GTH
         POTENTIAL GTH-PBE-q1
      &END KIND
      &KIND O
         BASIS_SET DZVP-MOLOPT-SR-GTH
         POTENTIAL GTH-PBE-q6
      &END KIND
      &TOPOLOGY
         COORD_FILE_FORMAT XYZ
         COORD_FILE_NAME aiida.coords.xyz
      &END TOPOLOGY
   &END SUBSYS
&END FORCE_EVAL
&GLOBAL
   RUN_TYPE ENERGY
&END GLOBAL